#######################
Slurm job id: 17497813_34
Running on machine: p45
Running cmd: /nfs/shared/static-builds/gurobi1003 SOFTMEMLIMIT=125 MIPFocus=3 Presolve=1 TimeLimit=500 seed=13 /nfs/models/miplib2010/k16x240.mps.bz2
#######################
Set parameter TimeLimit to value 500
Set parameter SoftMemLimit to value 125
Set parameter MIPFocus to value 3
Set parameter LogFile to value 1003-MIPFocus3-Presolve1-TimeLimit500-k16x240-3.log
Set parameter Presolve to value 1
Set parameter Seed to value 13
Using license file /opt/gurobi/gurobi.lic

Gurobi Optimizer version 10.0.3 build v10.0.3rc0 (linux64)
Copyright (c) 2023, Gurobi Optimization, LLC

Read MPS format model from file /nfs/models/miplib2010/k16x240.mps.bz2
Reading time = 0.01 seconds
k16x240: 256 rows, 480 columns, 960 nonzeros

CPU model: Intel(R) Xeon(R) E-2388G CPU @ 3.20GHz, instruction set [SSE2|AVX|AVX2|AVX512]
Thread count: 8 physical cores, 16 logical processors, using up to 16 threads

Optimize a model with 256 rows, 480 columns and 960 nonzeros
Model fingerprint: 0x4e80885f
Variable types: 240 continuous, 240 integer (240 binary)
Coefficient statistics:
  Matrix range     [1e+00, 1e+03]
  Objective range  [1e+00, 1e+03]
  Bounds range     [1e+00, 1e+03]
  RHS range        [4e+00, 4e+02]
Found heuristic solution: objective 25767.000000
Presolve time: 0.00s
Presolved: 256 rows, 480 columns, 960 nonzeros
Variable types: 240 continuous, 240 integer (240 binary)

Root relaxation: objective 2.769838e+03, 51 iterations, 0.00 seconds (0.00 work units)

    Nodes    |    Current Node    |     Objective Bounds      |     Work
 Expl Unexpl |  Obj  Depth IntInf | Incumbent    BestBd   Gap | It/Node Time

     0     0 2769.83800    0   14 25767.0000 2769.83800  89.3%     -    0s
H    0     0                    11359.000000 2769.83800  75.6%     -    0s
H    0     0                    11195.000000 2769.83800  75.3%     -    0s
H    0     0                    11074.000000 8116.87580  26.7%     -    0s
H    0     0                    10916.000000 8116.87580  25.6%     -    0s
     0     0 8116.87580    0   26 10916.0000 8116.87580  25.6%     -    0s
H    0     0                    10826.000000 8116.87580  25.0%     -    0s
H    0     0                    10806.000000 8741.20226  19.1%     -    0s
     0     0 8896.08201    0   28 10806.0000 8896.08201  17.7%     -    0s
     0     0 8901.59669    0   22 10806.0000 8901.59669  17.6%     -    0s
     0     0 8901.59669    0   33 10806.0000 8901.59669  17.6%     -    0s
     0     0 8914.53582    0   34 10806.0000 8914.53582  17.5%     -    0s
     0     0 8915.65524    0   38 10806.0000 8915.65524  17.5%     -    0s
     0     0 9068.62925    0   39 10806.0000 9068.62925  16.1%     -    0s
     0     0 9087.17307    0   38 10806.0000 9087.17307  15.9%     -    0s
     0     0 9124.51793    0   27 10806.0000 9124.51793  15.6%     -    0s
H    0     0                    10746.000000 9124.51793  15.1%     -    0s
     0     0 9187.03348    0   40 10746.0000 9187.03348  14.5%     -    0s
     0     0 9187.03348    0   40 10746.0000 9187.03348  14.5%     -    0s
H    0     0                    10674.000000 9187.03348  13.9%     -    0s
     0     2 9187.03348    0   40 10674.0000 9187.03348  13.9%     -    0s
  4858  3488 10599.9752   37   37 10674.0000 10275.4711  3.73%  77.4    5s
 20059 10338     cutoff   34      10674.0000 10505.1749  1.58%  54.4   10s

Cutting planes:
  Lift-and-project: 9
  Implied bound: 7
  MIR: 118
  Flow cover: 509
  Flow path: 34
  Zero half: 36
  Network: 19
  Relax-and-lift: 7

Explored 51081 nodes (1722290 simplex iterations) in 14.04 seconds (18.26 work units)
Thread count was 16 (of 16 available processors)

Solution count 9: 10674 10746 10806 ... 25767

Optimal solution found (tolerance 1.00e-04)
Best objective 1.067400000000e+04, best bound 1.067310123124e+04, gap 0.0084%
